output ([(((("\n"++problem_name)++"\n")++"L:")++show(L))++"\n"]++[if problem[i,j]==0 then "*" else show(letters[fix(L[problem[i,j]])]) endif++if j==cols then "\n" else "" endif | i in 1..rows, j in 1..cols, ])++["\n"];
int: rows = 15;
int: cols = 15;
array [1..rows,1..cols] of int: problem = [|1,2,3,0,4,5,6,0,7,8,9,0,10,11,12|13,14,15,0,16,17,18,0,19,20,21,0,22,23,24|25,26,27,28,29,30,31,0,32,33,34,35,36,37,38|0,0,39,40,41,42,0,43,44,45,46,47,48,0,0|49,50,51,52,53,0,54,55,56,0,57,58,59,60,61|62,63,64,65,0,66,67,68,69,70,0,71,72,73,74|75,76,77,78,79,80,81,0,82,83,84,0,85,86,87|0,0,0,88,89,90,0,0,0,91,92,93,0,0,0|94,95,96,0,97,98,99,0,100,101,102,103,104,105,106|107,108,109,110,0,111,112,113,114,115,0,116,117,118,119|120,121,122,123,124,0,125,126,127,0,128,129,130,131,132|0,0,133,134,135,136,137,138,0,139,140,141,142,0,0|143,144,145,146,147,148,149,0,150,151,152,153,154,155,156|157,158,159,0,160,161,162,0,163,164,165,0,166,167,168|169,170,171,0,172,173,174,0,175,176,177,0,178,179,180|];
int: num_letters = 26;
array [1..num_letters] of string: letters = ["a","b","c","d","e","f","g","h","i","j","k","l","m","n","o","p","q","r","s","t","u","v","w","x","y","z"];
int: N = 180;
array [0..N] of int: L;
string: problem_name = "puzzle17, 15 x 15";
